<instance format="XCSP3" type="COP">
  <variables>
    <array id="x" note="x[i] is the value for the ith variable" size="[67]">
      <domain for="x[0..12] x[18..24] x[27] x[29] x[35] x[39..40] x[43] x[46] x[52..54] x[56..58] x[60..61]"> 0 13 </domain>
      <domain for="x[13..17] x[25..26] x[28] x[30..34] x[36..38] x[41..42] x[44..45] x[47..51] x[55] x[62] x[64..65]"> 0 1 2 3 </domain>
      <domain for="x[59] x[63] x[66]"> 0 2 </domain>
    </array>
    <array id="y" size="[67]"> 0 1 </array>
  </variables>
  <constraints>
    <block note="binary constraints">
      <group>
        <extension>
          <list> %0 %1 </list>
          <supports> (0,0)(0,1)(0,2)(0,3)(1,0)(1,2)(1,3)(2,0)(2,1)(2,3)(3,0)(3,1)(3,2) </supports>
        </extension>
        <args> x[31] x[30] </args>
        <args> x[38] x[32] </args>
        <args> x[49] x[47] </args>
        <args> x[50] x[41] </args>
        <args> x[34] x[36] </args>
        <args> x[50] x[48] </args>
        <args> x[50] x[51] </args>
        <args> x[48] x[41] </args>
        <args> x[51] x[41] </args>
        <args> x[51] x[48] </args>
        <args> x[34] x[32] </args>
        <args> x[50] x[36] </args>
        <args> x[17] x[13] </args>
        <args> x[48] x[36] </args>
        <args> x[50] x[47] </args>
        <args> x[44] x[38] </args>
        <args> x[42] x[41] </args>
        <args> x[45] x[41] </args>
        <args> x[48] x[47] </args>
        <args> x[65] x[64] </args>
        <args> x[51] x[47] </args>
        <args> x[50] x[45] </args>
        <args> x[44] x[41] </args>
        <args> x[38] x[41] </args>
        <args> x[44] x[48] </args>
        <args> x[48] x[45] </args>
        <args> x[14] x[16] </args>
        <args> x[50] x[42] </args>
        <args> x[49] x[41] </args>
        <args> x[31] x[33] </args>
        <args> x[48] x[42] </args>
        <args> x[50] x[49] </args>
        <args> x[44] x[36] </args>
        <args> x[44] x[47] </args>
        <args> x[38] x[33] </args>
        <args> x[44] x[32] </args>
        <args> x[45] x[37] </args>
        <args> x[44] x[45] </args>
        <args> x[45] x[42] </args>
        <args> x[38] x[37] </args>
        <args> x[49] x[45] </args>
        <args> x[38] x[42] </args>
        <args> x[49] x[37] </args>
        <args> x[49] x[42] </args>
        <args> x[34] x[33] </args>
        <args> x[17] x[16] </args>
        <args> x[15] x[16] </args>
        <args> x[34] x[37] </args>
        <args> x[37] x[41] </args>
        <args> x[15] x[13] </args>
        <args> x[15] x[17] </args>
        <args> x[33] x[36] </args>
        <args> x[50] x[37] </args>
        <args> x[37] x[36] </args>
        <args> x[51] x[42] </args>
        <args> x[33] x[32] </args>
        <args> x[28] x[30] </args>
        <args> x[38] x[34] </args>
        <args> x[37] x[32] </args>
        <args> x[49] x[48] </args>
        <args> x[50] x[44] </args>
        <args> x[31] x[32] </args>
        <args> x[42] x[36] </args>
        <args> x[45] x[36] </args>
        <args> x[44] x[33] </args>
        <args> x[14] x[13] </args>
        <args> x[38] x[36] </args>
        <args> x[42] x[47] </args>
        <args> x[45] x[47] </args>
        <args> x[49] x[36] </args>
        <args> x[44] x[37] </args>
        <args> x[62] x[64] </args>
        <args> x[15] x[14] </args>
        <args> x[44] x[42] </args>
      </group>
      <group>
        <extension>
          <list> %0 %1 </list>
          <supports> (0,0)(0,13)(1,0)(2,0)(2,13)(3,0) </supports>
        </extension>
        <args> x[45] x[39] </args>
        <args> x[38] x[39] </args>
        <args> x[41] x[46] </args>
        <args> x[50] x[46] </args>
        <args> x[48] x[46] </args>
        <args> x[45] x[43] </args>
        <args> x[44] x[43] </args>
        <args> x[34] x[39] </args>
        <args> x[38] x[43] </args>
        <args> x[49] x[43] </args>
        <args> x[41] x[39] </args>
        <args> x[42] x[46] </args>
        <args> x[45] x[46] </args>
        <args> x[44] x[46] </args>
        <args> x[38] x[46] </args>
        <args> x[36] x[39] </args>
        <args> x[49] x[46] </args>
        <args> x[37] x[39] </args>
        <args> x[44] x[40] </args>
        <args> x[44] x[39] </args>
        <args> x[47] x[46] </args>
        <args> x[36] x[46] </args>
        <args> x[37] x[46] </args>
        <args> x[33] x[39] </args>
        <args> x[50] x[43] </args>
        <args> x[48] x[43] </args>
        <args> x[32] x[39] </args>
        <args> x[42] x[39] </args>
      </group>
      <group>
        <extension>
          <list> %0 %1 </list>
          <supports> (0,0)(0,1)(0,2)(0,3)(13,0)(13,2) </supports>
        </extension>
        <args> x[24] x[25] </args>
        <args> x[24] x[26] </args>
        <args> x[35] x[38] </args>
        <args> x[35] x[34] </args>
        <args> x[40] x[38] </args>
        <args> x[52] x[55] </args>
        <args> x[40] x[41] </args>
        <args> x[35] x[37] </args>
        <args> x[43] x[37] </args>
        <args> x[40] x[36] </args>
        <args> x[40] x[33] </args>
        <args> x[40] x[32] </args>
        <args> x[40] x[45] </args>
        <args> x[40] x[42] </args>
        <args> x[29] x[28] </args>
        <args> x[27] x[28] </args>
        <args> x[29] x[31] </args>
        <args> x[35] x[31] </args>
        <args> x[43] x[41] </args>
        <args> x[56] x[55] </args>
        <args> x[54] x[55] </args>
        <args> x[35] x[36] </args>
        <args> x[43] x[36] </args>
        <args> x[35] x[33] </args>
        <args> x[43] x[47] </args>
        <args> x[35] x[32] </args>
        <args> x[53] x[55] </args>
        <args> x[40] x[34] </args>
        <args> x[43] x[42] </args>
        <args> x[29] x[30] </args>
        <args> x[27] x[30] </args>
        <args> x[40] x[37] </args>
      </group>
      <group>
        <extension>
          <list> %0 %1 </list>
          <supports> (0,0)(0,13)(13,0) </supports>
        </extension>
        <args> x[23] x[22] </args>
        <args> x[20] x[18] </args>
        <args> x[7] x[4] </args>
        <args> x[11] x[8] </args>
        <args> x[7] x[5] </args>
        <args> x[40] x[43] </args>
        <args> x[10] x[9] </args>
        <args> x[23] x[21] </args>
        <args> x[56] x[52] </args>
        <args> x[54] x[53] </args>
        <args> x[40] x[46] </args>
        <args> x[11] x[12] </args>
        <args> x[11] x[10] </args>
        <args> x[56] x[54] </args>
        <args> x[35] x[39] </args>
        <args> x[43] x[39] </args>
        <args> x[12] x[9] </args>
        <args> x[20] x[22] </args>
        <args> x[52] x[53] </args>
        <args> x[40] x[39] </args>
        <args> x[23] x[19] </args>
        <args> x[7] x[6] </args>
        <args> x[20] x[21] </args>
        <args> x[8] x[9] </args>
        <args> x[43] x[46] </args>
        <args> x[19] x[21] </args>
        <args> x[19] x[18] </args>
        <args> x[23] x[18] </args>
        <args> x[4] x[5] </args>
        <args> x[22] x[21] </args>
        <args> x[22] x[18] </args>
        <args> x[56] x[53] </args>
        <args> x[20] x[19] </args>
        <args> x[11] x[9] </args>
        <args> x[6] x[5] </args>
      </group>
      <group>
        <extension>
          <list> %0 %1 </list>
          <supports> (0,0)(0,1)(0,2)(0,3)(2,0)(2,1)(2,3) </supports>
        </extension>
        <args> x[63] x[62] </args>
        <args> x[66] x[62] </args>
        <args> x[63] x[64] </args>
        <args> x[66] x[64] </args>
        <args> x[63] x[65] </args>
        <args> x[66] x[65] </args>
      </group>
      <group>
        <extension>
          <list> %0 %1 </list>
          <supports> (0,0)(0,1)(0,2)(0,3)(13,0)(13,1)(13,3) </supports>
        </extension>
        <args> x[5] x[15] </args>
        <args> x[6] x[15] </args>
        <args> x[5] x[14] </args>
        <args> x[7] x[15] </args>
        <args> x[6] x[14] </args>
        <args> x[7] x[14] </args>
      </group>
    </block>
    <block note="ternary constraints">
      <group>
        <extension>
          <list> %0 %1 %2 </list>
          <supports> (0,0,0)(0,0,1)(0,0,2)(0,0,3)(0,13,0)(0,13,1)(0,13,2)(0,13,3)(13,0,0)(13,0,1)(13,0,2)(13,0,3)(13,13,0)(13,13,1)(13,13,3) </supports>
        </extension>
        <args> x[6] x[20] x[13] </args>
        <args> x[40] x[58] x[55] </args>
        <args> x[6] x[18] x[13] </args>
        <args> x[43] x[58] x[55] </args>
        <args> x[5] x[20] x[13] </args>
        <args> x[8] x[23] x[17] </args>
        <args> x[7] x[19] x[13] </args>
        <args> x[8] x[22] x[17] </args>
        <args> x[5] x[19] x[13] </args>
        <args> x[6] x[19] x[13] </args>
        <args> x[7] x[20] x[13] </args>
        <args> x[8] x[21] x[17] </args>
        <args> x[7] x[18] x[13] </args>
        <args> x[5] x[18] x[13] </args>
      </group>
      <group>
        <extension>
          <list> %0 %1 %2 </list>
          <supports> (0,0,0)(0,0,1)(0,0,2)(0,0,3)(0,1,0)(0,1,1)(0,1,2)(0,1,3)(0,2,0)(0,2,1)(0,2,2)(0,2,3)(0,3,0)(0,3,1)(0,3,2)(0,3,3)(13,0,0)(13,0,1)(13,0,2)(13,0,3)(13,1,0)(13,1,1)(13,1,2)(13,1,3)(13,2,0)(13,2,1)(13,2,2)(13,3,0)(13,3,1)(13,3,2)(13,3,3) </supports>
        </extension>
        <args> x[58] x[55] x[41] </args>
        <args> x[58] x[55] x[36] </args>
        <args> x[58] x[55] x[37] </args>
        <args> x[58] x[55] x[42] </args>
      </group>
      <group>
        <extension>
          <list> %0 %1 %2 </list>
          <supports> (0,0,0)(0,0,1)(0,0,2)(0,0,3)(0,13,0)(0,13,1)(0,13,2)(0,13,3)(1,0,0)(1,0,1)(1,0,2)(1,0,3)(1,13,0)(1,13,1)(1,13,2)(1,13,3)(2,0,0)(2,0,1)(2,0,2)(2,0,3)(2,13,0)(2,13,1)(2,13,2)(2,13,3)(3,0,0)(3,0,1)(3,0,2)(3,0,3)(3,13,0)(3,13,1)(3,13,3) </supports>
        </extension>
        <args> x[44] x[58] x[55] </args>
        <args> x[45] x[58] x[55] </args>
        <args> x[38] x[58] x[55] </args>
      </group>
      <group>
        <extension>
          <list> %0 %1 %2 </list>
          <supports> (0,0,0)(0,0,13)(0,1,0)(0,1,13)(0,2,0)(0,2,13)(0,3,0)(0,3,13)(13,0,0)(13,0,13)(13,1,0)(13,1,13)(13,2,0)(13,3,0)(13,3,13) </supports>
        </extension>
        <args> x[58] x[55] x[46] </args>
        <args> x[58] x[55] x[39] </args>
      </group>
    </block>
    <group>
      <extension>
        <list> %0 %1 </list>
        <supports> (0,13)(1,0) </supports>
      </extension>
      <args> y[0] x[0] </args>
      <args> y[1] x[1] </args>
      <args> y[2] x[2] </args>
      <args> y[3] x[3] </args>
      <args> y[4] x[4] </args>
      <args> y[5] x[5] </args>
      <args> y[6] x[6] </args>
      <args> y[7] x[7] </args>
      <args> y[8] x[8] </args>
      <args> y[9] x[9] </args>
      <args> y[10] x[10] </args>
      <args> y[11] x[11] </args>
      <args> y[12] x[12] </args>
      <args> y[18] x[18] </args>
      <args> y[19] x[19] </args>
      <args> y[20] x[20] </args>
      <args> y[21] x[21] </args>
      <args> y[22] x[22] </args>
      <args> y[23] x[23] </args>
      <args> y[24] x[24] </args>
      <args> y[27] x[27] </args>
      <args> y[29] x[29] </args>
      <args> y[35] x[35] </args>
      <args> y[39] x[39] </args>
      <args> y[40] x[40] </args>
      <args> y[43] x[43] </args>
      <args> y[46] x[46] </args>
      <args> y[52] x[52] </args>
      <args> y[53] x[53] </args>
      <args> y[54] x[54] </args>
      <args> y[56] x[56] </args>
      <args> y[57] x[57] </args>
      <args> y[58] x[58] </args>
      <args> y[60] x[60] </args>
      <args> y[61] x[61] </args>
    </group>
    <group>
      <extension>
        <list> %0 %1 </list>
        <supports> (0,1)(0,2)(0,3)(1,0) </supports>
      </extension>
      <args> y[13] x[13] </args>
      <args> y[14] x[14] </args>
      <args> y[15] x[15] </args>
      <args> y[16] x[16] </args>
      <args> y[17] x[17] </args>
      <args> y[25] x[25] </args>
      <args> y[26] x[26] </args>
      <args> y[28] x[28] </args>
      <args> y[30] x[30] </args>
      <args> y[31] x[31] </args>
      <args> y[32] x[32] </args>
      <args> y[33] x[33] </args>
      <args> y[34] x[34] </args>
      <args> y[36] x[36] </args>
      <args> y[37] x[37] </args>
      <args> y[38] x[38] </args>
      <args> y[41] x[41] </args>
      <args> y[42] x[42] </args>
      <args> y[44] x[44] </args>
      <args> y[45] x[45] </args>
      <args> y[47] x[47] </args>
      <args> y[48] x[48] </args>
      <args> y[49] x[49] </args>
      <args> y[50] x[50] </args>
      <args> y[51] x[51] </args>
      <args> y[55] x[55] </args>
      <args> y[62] x[62] </args>
      <args> y[64] x[64] </args>
      <args> y[65] x[65] </args>
    </group>
    <group>
      <extension>
        <list> %0 %1 </list>
        <supports> (0,2)(1,0) </supports>
      </extension>
      <args> y[59] x[59] </args>
      <args> y[63] x[63] </args>
      <args> y[66] x[66] </args>
    </group>
  </constraints>
  <objectives>
    <minimize type="sum">
      <list> y[] </list>
      <coeffs> 2x13 1x5 2x7 1 1 2 1 2 1x5 2 1x3 2 2 1 1 2 1 1 2 1x5 2x3 1 2x3 1 2x7 </coeffs>
    </minimize>
  </objectives>
</instance>
